NAME : portcgen-23-7
COMMENT : portcgen N=23, seed=7
TYPE : TSP
DIMENSION : 23
EDGE_WEIGHT_TYPE : EUC_2D
NODE_COORD_SECTION
1 133150 -188317
2 -56566 337586
3 163080 -62760
4 -250387 -264059
5 -352873 89897
6 -18102 -176555
7 -403863 -222010
8 193656 194340
9 -10488 -234944
10 808 -37916
11 133896 -24660
12 23681 -325688
13 -505428 167733
14 -308189 208361
15 391751 288420
16 -96264 128088
17 -72057 -251875
18 -33354 -224817
19 -416087 -104693
20 289006 -147475
21 58341 352882
22 -60833 -231871
23 149477 183156
